assets/logs/4_12x12_clingo/4_12x12_clingo.solution.log

-------------------------------------------------
|  7| 41|126| 33| 11| 37|130| 16| 87|  1| 22|  0|
-------------------------------------------------
|  1| 31|  9| 39|128|122| 13| 10| 60| 18| 89| 26|
-------------------------------------------------
| 43|  5|  0|124| 35|  8| 14| 85| 15| 24|131| 20|
-------------------------------------------------
| 29| 94| 45|  3| 81| 23|120| 58| 12| 62| 28| 91|
-------------------------------------------------
| 90| 49| 27|  1|  6| 56| 83| 17| 95|  1|  0|129|
-------------------------------------------------
| 96|115| 92| 47| 25| 79| 21|118| 64|127| 93| 30|
-------------------------------------------------
|111| 88| 51|117| 55|  4| 54| 77| 19| 97|  1|125|
-------------------------------------------------
|  0| 98|113|  2|104|119|116| 66| 52|123| 32|  1|
-------------------------------------------------
| 86|109|102| 53| 71| 57| 75|121| 99|112| 50|  0|
-------------------------------------------------
|100|  1| 65| 82|105|106| 68|114| 72| 38| 44| 34|
-------------------------------------------------
| 63| 84|107| 69| 59| 73| 78|101|110| 48| 74| 40|
-------------------------------------------------
|  1| 67| 61|  1| 80|103|108| 70| 76| 42| 36| 46|
-------------------------------------------------

| n = 12 | k = 9 | coverage = 139, 96.52777777777777%
 Time 300.0
 Name 4_12x12_clingo

