assets/logs/4_12x12_clingo/4_12x12_clingo.log
clingo version 5.4.0
Reading from ...ts/logs/4_12x12_clingo/knights_tour.lp ...
Solving...
Answer: 1
occ(1,1,10) occ(1,8,12) occ(1,5,4) occ(1,5,10) occ(1,10,2) occ(1,2,1) occ(1,12,1) occ(1,12,4) occ(1,7,11) occ(2,8,4) occ(3,4,4) coverage(6)
Optimization: -6
Answer: 2
occ(1,1,10) occ(1,8,12) occ(1,5,4) occ(1,5,10) occ(1,10,2) occ(1,2,1) occ(1,12,1) occ(1,12,4) occ(1,7,11) occ(2,8,4) occ(3,4,4) coverage(8) occ(7,3,1) occ(5,5,2) occ(4,9,2) occ(6,11,1)
Optimization: -8
Answer: 3
occ(1,1,10) occ(1,8,12) occ(1,5,4) occ(1,5,10) occ(1,10,2) occ(1,2,1) occ(1,12,1) occ(1,12,4) occ(1,7,11) occ(2,8,4) occ(3,4,4) coverage(10) occ(5,5,2) occ(7,6,4) occ(9,7,2) occ(4,9,2) occ(6,11,1) occ(8,12,3)
Optimization: -10
Answer: 4
occ(1,1,10) occ(1,8,12) occ(1,5,4) occ(1,5,10) occ(1,10,2) occ(1,2,1) occ(1,12,1) occ(1,12,4) occ(1,7,11) occ(2,8,4) occ(3,4,4) coverage(69) occ(24,1,4) occ(30,1,9) occ(42,1,5) occ(61,1,6) occ(26,2,6) occ(32,2,11) occ(40,2,7) occ(63,2,8) occ(22,3,3) occ(28,3,8) occ(36,3,10) occ(44,3,6) occ(59,3,7) occ(64,3,12) occ(9,4,5) occ(20,4,1) occ(34,4,12) occ(38,4,8) occ(48,4,7) occ(65,4,9) occ(66,4,10) occ(5,5,6) occ(11,5,7) occ(18,5,3) occ(46,5,5) occ(57,5,8) occ(62,5,11) occ(68,5,12) occ(7,6,4) occ(13,6,9) occ(16,6,5) occ(50,6,6) occ(67,6,8) occ(70,6,10) occ(76,6,11) occ(27,7,5) occ(55,7,7) occ(60,7,12) occ(74,7,9) occ(14,8,6) occ(15,8,8) occ(25,8,3) occ(52,8,7) occ(56,8,9) occ(72,8,11) occ(78,8,10) occ(4,9,6) occ(19,9,5) occ(23,9,1) occ(29,9,4) occ(39,9,9) occ(53,9,8) occ(58,9,11) occ(80,9,12) occ(84,9,10) occ(12,10,5) occ(17,10,7) occ(21,10,3) occ(35,10,6) occ(45,10,11) occ(51,10,10) occ(54,10,8) occ(86,10,12) occ(6,11,7) occ(10,11,3) occ(31,11,5) occ(37,11,8) occ(41,11,10) occ(49,11,12) occ(82,11,11) occ(90,11,9) occ(8,12,5) occ(33,12,7) occ(43,12,12) occ(47,12,10) occ(88,12,11)
Optimization: -69
Answer: 5
occ(1,1,10) occ(1,8,12) occ(1,5,4) occ(1,5,10) occ(1,10,2) occ(1,2,1) occ(1,12,1) occ(1,12,4) occ(1,7,11) occ(2,8,4) occ(3,4,4) coverage(96) occ(24,1,4) occ(30,1,9) occ(42,1,5) occ(61,1,6) occ(69,1,12) occ(95,1,1) occ(26,2,6) occ(32,2,11) occ(40,2,7) occ(63,2,8) occ(71,2,10) occ(93,2,3) occ(22,3,3) occ(28,3,8) occ(36,3,10) occ(44,3,6) occ(59,3,7) occ(64,3,12) occ(67,3,11) occ(9,4,5) occ(20,4,1) occ(34,4,12) occ(38,4,8) occ(48,4,7) occ(65,4,9) occ(66,4,10) occ(73,4,11) occ(91,4,2) occ(5,5,6) occ(11,5,7) occ(18,5,3) occ(46,5,5) occ(57,5,8) occ(62,5,11) occ(68,5,12) occ(79,5,9) occ(7,6,4) occ(13,6,9) occ(16,6,5) occ(50,6,6) occ(54,6,8) occ(70,6,10) occ(75,6,12) occ(76,6,11) occ(89,6,1) occ(27,7,5) occ(55,7,7) occ(60,7,12) occ(74,7,9) occ(77,7,10) occ(81,7,8) occ(87,7,3) occ(14,8,6) occ(15,8,8) occ(25,8,3) occ(52,8,7) occ(56,8,9) occ(72,8,11) occ(78,8,10) occ(85,8,5) occ(4,9,6) occ(19,9,5) occ(23,9,1) occ(29,9,4) occ(39,9,9) occ(53,9,8) occ(58,9,11) occ(80,9,12) occ(83,9,7) occ(84,9,10) occ(94,9,3) occ(12,10,5) occ(17,10,7) occ(21,10,3) occ(35,10,6) occ(45,10,11) occ(51,10,10) occ(86,10,8) occ(90,10,4) occ(6,11,7) occ(10,11,3) occ(31,11,5) occ(37,11,8) occ(41,11,10) occ(49,11,12) occ(82,11,11) occ(88,11,6) occ(92,11,2) occ(8,12,5) occ(33,12,7) occ(43,12,12) occ(47,12,10)
Optimization: -96
Answer: 6
occ(1,1,10) occ(1,8,12) occ(1,5,4) occ(1,5,10) occ(1,10,2) occ(1,2,1) occ(1,12,1) occ(1,12,4) occ(1,7,11) occ(2,8,4) occ(3,4,4) coverage(97) occ(24,1,4) occ(30,1,9) occ(42,1,5) occ(61,1,6) occ(69,1,12) occ(95,1,1) occ(26,2,6) occ(32,2,11) occ(40,2,7) occ(63,2,8) occ(71,2,10) occ(93,2,3) occ(22,3,3) occ(28,3,8) occ(36,3,10) occ(44,3,6) occ(59,3,7) occ(64,3,12) occ(67,3,11) occ(9,4,5) occ(20,4,1) occ(34,4,12) occ(38,4,8) occ(48,4,7) occ(65,4,9) occ(66,4,10) occ(73,4,11) occ(91,4,2) occ(5,5,6) occ(11,5,7) occ(18,5,3) occ(46,5,5) occ(57,5,8) occ(62,5,11) occ(68,5,12) occ(79,5,9) occ(7,6,4) occ(13,6,9) occ(16,6,5) occ(50,6,6) occ(54,6,8) occ(70,6,10) occ(75,6,12) occ(76,6,11) occ(89,6,1) occ(27,7,5) occ(55,7,7) occ(60,7,12) occ(74,7,9) occ(77,7,10) occ(81,7,8) occ(87,7,3) occ(14,8,6) occ(15,8,8) occ(25,8,3) occ(52,8,7) occ(56,8,9) occ(72,8,11) occ(78,8,10) occ(85,8,5) occ(4,9,6) occ(19,9,5) occ(23,9,1) occ(29,9,4) occ(39,9,9) occ(53,9,8) occ(58,9,11) occ(80,9,12) occ(83,9,7) occ(84,9,10) occ(94,9,3) occ(12,10,5) occ(17,10,7) occ(21,10,3) occ(35,10,6) occ(45,10,11) occ(51,10,10) occ(86,10,8) occ(90,10,4) occ(6,11,7) occ(10,11,3) occ(31,11,5) occ(37,11,8) occ(41,11,10) occ(49,11,12) occ(82,11,11) occ(88,11,6) occ(92,11,2) occ(96,11,4) occ(8,12,5) occ(33,12,7) occ(43,12,12) occ(47,12,10)
Optimization: -97
Answer: 7
occ(1,1,10) occ(1,8,12) occ(1,5,4) occ(1,5,10) occ(1,10,2) occ(1,2,1) occ(1,12,1) occ(1,12,4) occ(1,7,11) occ(2,8,4) occ(3,4,4) coverage(98) occ(24,1,4) occ(30,1,9) occ(42,1,5) occ(61,1,6) occ(69,1,12) occ(97,1,2) occ(26,2,6) occ(32,2,11) occ(40,2,7) occ(63,2,8) occ(71,2,10) occ(93,2,3) occ(22,3,3) occ(28,3,8) occ(36,3,10) occ(44,3,6) occ(59,3,7) occ(64,3,12) occ(67,3,11) occ(95,3,1) occ(9,4,5) occ(20,4,1) occ(34,4,12) occ(38,4,8) occ(48,4,7) occ(65,4,9) occ(66,4,10) occ(73,4,11) occ(91,4,2) occ(5,5,6) occ(11,5,7) occ(18,5,3) occ(46,5,5) occ(57,5,8) occ(62,5,11) occ(68,5,12) occ(79,5,9) occ(7,6,4) occ(13,6,9) occ(16,6,5) occ(50,6,6) occ(54,6,8) occ(70,6,10) occ(75,6,12) occ(76,6,11) occ(89,6,1) occ(27,7,5) occ(55,7,7) occ(60,7,12) occ(74,7,9) occ(77,7,10) occ(81,7,8) occ(87,7,3) occ(14,8,6) occ(15,8,8) occ(25,8,3) occ(52,8,7) occ(56,8,9) occ(72,8,11) occ(78,8,10) occ(85,8,5) occ(4,9,6) occ(19,9,5) occ(23,9,1) occ(29,9,4) occ(39,9,9) occ(53,9,8) occ(58,9,11) occ(80,9,12) occ(83,9,7) occ(84,9,10) occ(94,9,3) occ(12,10,5) occ(17,10,7) occ(21,10,3) occ(35,10,6) occ(45,10,11) occ(51,10,10) occ(86,10,8) occ(90,10,4) occ(6,11,7) occ(10,11,3) occ(31,11,5) occ(37,11,8) occ(41,11,10) occ(49,11,12) occ(82,11,11) occ(88,11,6) occ(92,11,2) occ(96,11,4) occ(8,12,5) occ(33,12,7) occ(43,12,12) occ(47,12,10)
Optimization: -98
Answer: 8
occ(1,1,10) occ(1,8,12) occ(1,5,4) occ(1,5,10) occ(1,10,2) occ(1,2,1) occ(1,12,1) occ(1,12,4) occ(1,7,11) occ(2,8,4) occ(3,4,4) coverage(114) occ(19,1,5) occ(23,1,9) occ(63,1,11) occ(77,1,6) occ(80,1,8) occ(95,1,3) occ(101,1,2) occ(105,1,4) occ(21,2,7) occ(61,2,9) occ(72,2,3) occ(78,2,6) occ(79,2,8) occ(82,2,10) occ(93,2,5) occ(99,2,4) occ(107,2,2) occ(17,3,6) occ(25,3,8) occ(59,3,7) occ(65,3,10) occ(70,3,1) occ(71,3,9) occ(75,3,5) occ(76,3,4) occ(83,3,11) occ(84,3,12) occ(97,3,2) occ(103,3,3) occ(15,4,8) occ(29,4,5) occ(69,4,11) occ(73,4,7) occ(74,4,2) occ(81,4,9) occ(86,4,10) occ(91,4,6) occ(109,4,1) occ(113,4,3) occ(27,5,7) occ(31,5,3) occ(54,5,1) occ(57,5,6) occ(67,5,9) occ(68,5,2) occ(85,5,12) occ(89,5,8) occ(115,5,5) occ(5,6,5) occ(13,6,9) occ(33,6,1) occ(42,6,6) occ(52,6,3) occ(55,6,8) occ(87,6,10) occ(88,6,11) occ(106,6,4) occ(111,6,2) occ(117,6,7) occ(11,7,7) occ(35,7,3) occ(36,7,10) occ(44,7,4) occ(56,7,2) occ(66,7,1) occ(90,7,9) occ(108,7,6) occ(7,8,6) occ(14,8,10) occ(40,8,7) occ(50,8,2) occ(53,8,9) occ(92,8,11) occ(104,8,5) occ(110,8,8) occ(4,9,6) occ(9,9,8) occ(16,9,12) occ(28,9,10) occ(34,9,11) occ(37,9,4) occ(38,9,9) occ(46,9,5) occ(51,9,7) occ(58,9,3) occ(64,9,2) occ(12,10,11) occ(20,10,9) occ(26,10,8) occ(30,10,12) occ(41,10,1) occ(48,10,3) occ(49,10,5) occ(62,10,4) occ(94,10,10) occ(102,10,6) occ(112,10,7) occ(6,11,5) occ(10,11,9) occ(18,11,11) occ(24,11,6) occ(32,11,10) occ(39,11,3) occ(45,11,4) occ(60,11,2) occ(96,11,12) occ(100,11,8) occ(8,12,7) occ(22,12,8) occ(43,12,2) occ(47,12,6) occ(98,12,10)
Optimization: -114
Answer: 9
occ(1,1,10) occ(1,8,12) occ(1,5,4) occ(1,5,10) occ(1,10,2) occ(1,2,1) occ(1,12,1) occ(1,12,4) occ(1,7,11) occ(2,8,4) occ(3,4,4) coverage(124) occ(19,1,5) occ(23,1,9) occ(63,1,11) occ(77,1,6) occ(80,1,8) occ(95,1,3) occ(101,1,2) occ(105,1,4) occ(21,2,7) occ(61,2,9) occ(72,2,3) occ(78,2,6) occ(79,2,8) occ(82,2,10) occ(88,2,11) occ(93,2,5) occ(99,2,4) occ(107,2,2) occ(17,3,6) occ(25,3,8) occ(59,3,7) occ(65,3,10) occ(70,3,1) occ(71,3,9) occ(75,3,5) occ(76,3,4) occ(83,3,11) occ(84,3,12) occ(97,3,2) occ(103,3,3) occ(15,4,8) occ(29,4,5) occ(69,4,11) occ(73,4,7) occ(74,4,2) occ(81,4,9) occ(86,4,10) occ(90,4,12) occ(91,4,6) occ(109,4,1) occ(113,4,3) occ(27,5,7) occ(31,5,3) occ(54,5,1) occ(57,5,6) occ(67,5,9) occ(68,5,2) occ(85,5,12) occ(89,5,8) occ(115,5,5) occ(5,6,5) occ(13,6,9) occ(22,6,12) occ(33,6,1) occ(51,6,6) occ(52,6,3) occ(55,6,8) occ(87,6,10) occ(92,6,11) occ(106,6,4) occ(111,6,2) occ(117,6,7) occ(11,7,7) occ(24,7,10) occ(35,7,3) occ(49,7,4) occ(56,7,2) occ(66,7,1) occ(108,7,6) occ(119,7,9) occ(7,8,6) occ(12,8,9) occ(20,8,11) occ(50,8,2) occ(53,8,7) occ(94,8,10) occ(104,8,5) occ(123,8,8) occ(6,9,7) occ(9,9,8) occ(26,9,11) occ(37,9,4) occ(40,9,6) occ(47,9,3) occ(58,9,1) occ(64,9,2) occ(110,9,5) occ(118,9,9) occ(121,9,10) occ(4,10,5) occ(10,10,8) occ(14,10,10) occ(18,10,12) occ(32,10,9) occ(41,10,1) occ(48,10,3) occ(62,10,4) occ(96,10,11) occ(102,10,6) occ(112,10,7) occ(8,11,6) occ(28,11,12) occ(34,11,11) occ(38,11,7) occ(39,11,3) occ(42,11,5) occ(45,11,4) occ(46,11,1) occ(60,11,2) occ(98,11,9) occ(116,11,8) occ(120,11,10) occ(16,12,11) occ(30,12,10) occ(36,12,9) occ(43,12,2) occ(44,12,3) occ(100,12,7) occ(114,12,6) occ(122,12,12)
Optimization: -124
Answer: 10
occ(1,1,10) occ(1,8,12) occ(1,5,4) occ(1,5,10) occ(1,10,2) occ(1,2,1) occ(1,12,1) occ(1,12,4) occ(1,7,11) occ(2,8,4) occ(3,4,4) coverage(127) occ(13,1,4) occ(17,1,8) occ(43,1,3) occ(47,1,7) occ(55,1,11) occ(80,1,2) occ(86,1,5) occ(90,1,9) occ(121,1,12) occ(11,2,2) occ(15,2,6) occ(45,2,5) occ(53,2,9) occ(59,2,12) occ(78,2,4) occ(84,2,3) occ(88,2,7) occ(92,2,11) occ(106,2,8) occ(123,2,10) occ(7,3,3) occ(19,3,7) occ(25,3,8) occ(30,3,5) occ(37,3,4) occ(41,3,2) occ(49,3,6) occ(57,3,10) occ(82,3,1) occ(119,3,11) occ(125,3,12) occ(9,4,1) occ(23,4,10) occ(28,4,3) occ(35,4,6) occ(51,4,8) occ(61,4,11) occ(76,4,5) occ(94,4,12) occ(104,4,9) occ(108,4,7) occ(5,5,2) occ(21,5,8) occ(27,5,7) occ(32,5,6) occ(39,5,3) occ(42,5,1) occ(71,5,9) occ(102,5,11) occ(110,5,5) occ(117,5,12) occ(26,6,4) occ(29,6,9) occ(33,6,5) occ(40,6,3) occ(63,6,12) occ(69,6,7) occ(74,6,6) occ(79,6,8) occ(96,6,11) occ(115,6,10) occ(124,6,1) occ(31,7,7) occ(34,7,5) occ(38,7,1) occ(44,7,2) occ(67,7,9) occ(73,7,10) occ(77,7,6) occ(100,7,12) occ(112,7,4) occ(113,7,8) occ(126,7,3) occ(24,8,5) occ(36,8,3) occ(65,8,11) occ(72,8,7) occ(75,8,8) occ(81,8,9) occ(98,8,10) occ(111,8,6) occ(122,8,2) occ(4,9,2) occ(16,9,10) occ(22,9,7) occ(46,9,1) occ(52,9,6) occ(70,9,9) occ(83,9,11) occ(93,9,8) occ(99,9,5) occ(109,9,4) occ(114,9,3) occ(18,10,8) occ(50,10,4) occ(60,10,9) occ(68,10,11) occ(91,10,10) occ(95,10,6) occ(101,10,7) occ(105,10,5) occ(116,10,1) occ(120,10,3) occ(6,11,1) occ(10,11,5) occ(14,11,9) occ(20,11,6) occ(48,11,2) occ(54,11,7) occ(58,11,11) occ(64,11,10) occ(85,11,12) occ(89,11,8) occ(97,11,4) occ(107,11,3) occ(8,12,3) occ(12,12,7) occ(56,12,9) occ(62,12,8) occ(66,12,12) occ(87,12,10) occ(103,12,6) occ(118,12,2)
Optimization: -127
Answer: 11
occ(1,1,10) occ(1,8,12) occ(1,5,4) occ(1,5,10) occ(1,10,2) occ(1,2,1) occ(1,12,1) occ(1,12,4) occ(1,7,11) occ(2,8,4) occ(3,4,4) coverage(128) occ(7,1,7) occ(12,1,2) occ(18,1,5) occ(22,1,3) occ(26,1,1) occ(101,1,4) occ(109,1,8) occ(124,1,6) occ(127,1,11) occ(5,2,5) occ(14,2,4) occ(28,2,3) occ(48,2,7) occ(78,2,12) occ(107,2,6) occ(113,2,11) occ(119,2,10) occ(125,2,9) occ(126,2,8) occ(9,3,8) occ(10,3,1) occ(16,3,6) occ(20,3,4) occ(24,3,2) occ(76,3,10) occ(99,3,3) occ(103,3,5) occ(111,3,9) occ(117,3,12) occ(122,3,7) occ(123,3,11) occ(8,4,3) occ(30,4,2) occ(46,4,8) occ(50,4,6) occ(61,4,5) occ(74,4,12) occ(80,4,11) occ(105,4,7) occ(115,4,10) occ(121,4,9) occ(6,5,1) occ(11,5,9) occ(38,5,5) occ(44,5,6) occ(59,5,3) occ(63,5,7) occ(90,5,11) occ(97,5,2) occ(120,5,8) occ(4,6,3) occ(32,6,1) occ(40,6,7) occ(43,6,4) occ(52,6,5) occ(65,6,9) occ(72,6,11) occ(82,6,12) occ(91,6,2) occ(94,6,10) occ(118,6,6) occ(13,7,8) occ(36,7,4) occ(42,7,5) occ(45,7,6) occ(54,7,7) occ(57,7,2) occ(70,7,9) occ(87,7,3) occ(88,7,10) occ(92,7,12) occ(95,7,1) occ(15,8,6) occ(34,8,2) occ(41,8,5) occ(66,8,10) occ(67,8,8) occ(84,8,11) occ(89,8,1) occ(93,8,3) occ(96,8,9) occ(116,8,7) occ(17,9,4) occ(39,9,7) occ(47,9,5) occ(51,9,1) occ(55,9,3) occ(56,9,6) occ(64,9,12) occ(68,9,8) occ(69,9,10) occ(85,9,2) occ(86,9,9) occ(98,9,11) occ(23,10,6) occ(29,10,1) occ(49,10,3) occ(60,10,9) occ(71,10,12) occ(77,10,7) occ(83,10,4) occ(104,10,11) occ(110,10,10) occ(114,10,8) occ(19,11,5) occ(27,11,3) occ(33,11,4) occ(37,11,8) occ(53,11,2) occ(58,11,7) occ(62,11,11) occ(75,11,9) occ(81,11,6) occ(100,11,10) occ(108,11,12) occ(21,12,7) occ(25,12,5) occ(31,12,2) occ(35,12,6) occ(73,12,11) occ(79,12,8) occ(102,12,12) occ(106,12,10) occ(112,12,9)
Optimization: -128
Answer: 12
occ(1,1,10) occ(1,8,12) occ(1,5,4) occ(1,5,10) occ(1,10,2) occ(1,2,1) occ(1,12,1) occ(1,12,4) occ(1,7,11) occ(2,8,4) occ(3,4,4) coverage(129) occ(7,1,7) occ(62,1,9) occ(66,1,5) occ(70,1,3) occ(86,1,1) occ(108,1,8) occ(112,1,12) occ(113,1,4) occ(117,1,6) occ(123,1,11) occ(9,2,9) occ(55,2,6) occ(64,2,7) occ(72,2,5) occ(84,2,3) occ(110,2,10) occ(111,2,2) occ(119,2,8) occ(124,2,11) occ(5,3,6) occ(60,3,8) occ(68,3,4) occ(82,3,1) occ(88,3,2) occ(106,3,7) occ(114,3,11) occ(115,3,5) occ(121,3,10) occ(122,3,9) occ(125,3,12) occ(11,4,8) occ(29,4,9) occ(52,4,3) occ(53,4,7) occ(57,4,5) occ(74,4,6) occ(109,4,1) occ(120,4,11) occ(126,4,12) occ(127,4,10) occ(31,5,11) occ(32,5,6) occ(50,5,5) occ(51,5,9) occ(58,5,7) occ(59,5,3) occ(80,5,2) occ(90,5,1) occ(104,5,8) occ(116,5,12) occ(13,6,9) occ(19,6,12) occ(27,6,8) occ(48,6,3) occ(54,6,4) occ(61,6,1) occ(76,6,5) occ(100,6,7) occ(103,6,6) occ(107,6,2) occ(118,6,10) occ(128,6,11) occ(17,7,10) occ(30,7,5) occ(33,7,12) occ(34,7,7) occ(46,7,1) occ(49,7,8) occ(56,7,6) occ(78,7,3) occ(92,7,2) occ(102,7,9) occ(105,7,4) occ(15,8,8) occ(21,8,11) occ(25,8,9) occ(35,8,10) occ(36,8,5) occ(44,8,3) occ(63,8,2) occ(98,8,6) occ(101,8,7) occ(4,9,2) occ(14,9,1) occ(20,9,6) occ(28,9,4) occ(38,9,7) occ(42,9,5) occ(47,9,9) occ(79,9,11) occ(85,9,10) occ(93,9,8) occ(94,9,3) occ(12,10,3) occ(18,10,4) occ(23,10,10) occ(37,10,11) occ(45,10,7) occ(65,10,1) occ(81,10,9) occ(87,10,12) occ(95,10,6) occ(96,10,5) occ(99,10,8) occ(6,11,1) occ(10,11,5) occ(16,11,2) occ(22,11,7) occ(26,11,3) occ(40,11,6) occ(41,11,10) occ(69,11,4) occ(73,11,8) occ(77,11,12) occ(83,11,11) occ(91,11,9) occ(8,12,3) occ(24,12,5) occ(39,12,12) occ(43,12,8) occ(67,12,2) occ(71,12,6) occ(75,12,10) occ(89,12,11) occ(97,12,7)
Optimization: -129
Answer: 13
occ(1,1,10) occ(1,8,12) occ(1,5,4) occ(1,5,10) occ(1,10,2) occ(1,2,1) occ(1,12,1) occ(1,12,4) occ(1,7,11) occ(2,8,4) occ(3,4,4) coverage(130) occ(29,1,8) occ(35,1,9) occ(49,1,12) occ(71,1,5) occ(87,1,7) occ(91,1,3) occ(98,1,11) occ(108,1,6) occ(116,1,2) occ(120,1,4) occ(10,2,4) occ(27,2,6) occ(33,2,7) occ(36,2,11) occ(51,2,10) occ(89,2,5) occ(100,2,9) occ(106,2,8) occ(112,2,3) occ(122,2,2) occ(31,3,9) occ(37,3,10) occ(47,3,11) occ(69,3,4) occ(73,3,6) occ(85,3,8) occ(93,3,2) occ(96,3,12) occ(102,3,7) occ(110,3,5) occ(114,3,1) occ(118,3,3) occ(8,4,3) occ(12,4,5) occ(25,4,7) occ(34,4,10) occ(38,4,12) occ(53,4,11) occ(75,4,8) occ(79,4,6) occ(104,4,9) occ(124,4,1) occ(5,5,2) occ(28,5,6) occ(32,5,8) occ(39,5,9) occ(45,5,12) occ(67,5,5) occ(83,5,7) occ(94,5,11) occ(95,5,1) occ(99,5,3) occ(6,6,4) occ(14,6,6) occ(23,6,8) occ(24,6,3) occ(40,6,11) occ(43,6,10) occ(55,6,12) occ(77,6,7) occ(81,6,5) occ(101,6,1) occ(126,6,2) occ(4,7,6) occ(7,7,3) occ(21,7,10) occ(22,7,1) occ(26,7,5) occ(30,7,7) occ(41,7,8) occ(42,7,9) occ(65,7,4) occ(92,7,12) occ(97,7,2) occ(9,8,5) occ(16,8,7) occ(17,8,9) occ(20,8,3) occ(57,8,11) occ(63,8,6) occ(90,8,10) occ(103,8,2) occ(119,8,8) occ(128,8,1) occ(11,9,3) occ(15,9,7) occ(18,9,5) occ(19,9,11) occ(44,9,10) occ(54,9,1) occ(59,9,9) occ(72,9,12) occ(88,9,8) occ(105,9,4) occ(109,9,2) occ(117,9,6) occ(13,10,5) occ(46,10,8) occ(50,10,4) occ(56,10,3) occ(61,10,7) occ(70,10,10) occ(82,10,6) occ(121,10,9) occ(127,10,12) occ(48,11,6) occ(52,11,2) occ(60,11,4) occ(64,11,8) occ(68,11,12) occ(74,11,11) occ(78,11,7) occ(86,11,9) occ(107,11,3) occ(111,11,1) occ(115,11,5) occ(125,11,10) occ(58,12,2) occ(62,12,6) occ(66,12,10) occ(76,12,9) occ(80,12,5) occ(84,12,7) occ(113,12,3) occ(123,12,8) occ(129,12,11)
Optimization: -130
Answer: 14
occ(1,1,10) occ(1,8,12) occ(1,5,4) occ(1,5,10) occ(1,10,2) occ(1,2,1) occ(1,12,1) occ(1,12,4) occ(1,7,11) occ(2,8,4) occ(3,4,4) coverage(131) occ(16,1,2) occ(20,1,6) occ(58,1,9) occ(66,1,7) occ(83,1,3) occ(88,1,4) occ(89,1,8) occ(93,1,12) occ(107,1,11) occ(12,2,3) occ(18,2,4) occ(22,2,8) occ(60,2,7) occ(64,2,9) occ(68,2,5) occ(86,2,2) occ(87,2,6) occ(91,2,10) occ(111,2,12) occ(112,2,11) occ(14,3,1) occ(24,3,6) occ(56,3,8) occ(81,3,2) occ(82,3,3) occ(85,3,4) occ(90,3,5) occ(95,3,11) occ(105,3,12) occ(109,3,10) occ(110,3,9) occ(122,3,7) occ(10,4,2) occ(62,4,8) occ(70,4,6) occ(80,4,5) occ(84,4,1) occ(92,4,3) occ(108,4,7) occ(113,4,11) occ(114,4,12) occ(118,4,10) occ(124,4,9) occ(5,5,2) occ(6,5,1) occ(26,5,7) occ(54,5,9) occ(76,5,6) occ(79,5,3) occ(97,5,12) occ(103,5,11) occ(106,5,5) occ(120,5,8) occ(8,6,3) occ(43,6,6) occ(52,6,7) occ(72,6,5) occ(77,6,1) occ(78,6,4) occ(94,6,2) occ(99,6,10) occ(115,6,12) occ(116,6,11) occ(126,6,8) occ(4,7,2) occ(7,7,3) occ(28,7,8) occ(35,7,5) occ(45,7,4) occ(50,7,9) occ(74,7,7) occ(101,7,12) occ(104,7,6) occ(128,7,10) occ(30,8,6) occ(33,8,3) occ(37,8,7) occ(40,8,9) occ(41,8,5) occ(75,8,2) occ(96,8,1) occ(117,8,11) occ(127,8,10) occ(130,8,8) occ(9,9,2) occ(25,9,6) occ(31,9,1) occ(32,9,8) occ(38,9,11) occ(47,9,5) occ(48,9,10) occ(73,9,4) occ(98,9,3) occ(102,9,7) occ(119,9,9) occ(129,9,12) occ(13,10,3) occ(17,10,1) occ(27,10,4) occ(34,10,10) occ(39,10,6) occ(42,10,8) occ(57,10,11) occ(63,10,12) occ(100,10,5) occ(121,10,7) occ(125,10,9) occ(11,11,1) occ(19,11,3) occ(23,11,7) occ(29,11,2) occ(36,11,12) occ(46,11,11) occ(49,11,4) occ(53,11,8) occ(61,11,10) occ(67,11,9) occ(71,11,5) occ(15,12,2) occ(21,12,5) occ(44,12,9) occ(51,12,6) occ(55,12,10) occ(59,12,12) occ(65,12,11) occ(69,12,7) occ(123,12,8)
Optimization: -131
Answer: 15
occ(1,1,10) occ(1,8,12) occ(1,5,4) occ(1,5,10) occ(1,10,2) occ(1,2,1) occ(1,12,1) occ(1,12,4) occ(1,7,11) occ(2,8,4) occ(3,4,4) coverage(132) occ(7,1,1) occ(11,1,5) occ(16,1,8) occ(22,1,11) occ(33,1,4) occ(37,1,6) occ(41,1,2) occ(87,1,9) occ(126,1,3) occ(130,1,7) occ(9,2,3) occ(10,2,8) occ(13,2,7) occ(18,2,10) occ(26,2,12) occ(31,2,2) occ(39,2,4) occ(60,2,9) occ(89,2,11) occ(122,2,6) occ(128,2,5) occ(5,3,2) occ(8,3,6) occ(14,3,7) occ(15,3,9) occ(20,3,12) occ(24,3,10) occ(35,3,5) occ(43,3,1) occ(85,3,8) occ(124,3,4) occ(131,3,11) occ(12,4,9) occ(23,4,6) occ(28,4,11) occ(29,4,1) occ(45,4,3) occ(58,4,8) occ(62,4,10) occ(81,4,5) occ(91,4,12) occ(94,4,2) occ(120,4,7) occ(6,5,5) occ(17,5,8) occ(27,5,3) occ(49,5,2) occ(56,5,6) occ(83,5,7) occ(90,5,1) occ(95,5,9) occ(129,5,12) occ(21,6,7) occ(25,6,5) occ(30,6,12) occ(47,6,4) occ(64,6,9) occ(79,6,6) occ(92,6,3) occ(93,6,11) occ(96,6,1) occ(115,6,2) occ(118,6,8) occ(127,6,10) occ(4,7,6) occ(19,7,9) occ(51,7,3) occ(54,7,7) occ(55,7,5) occ(77,7,8) occ(88,7,2) occ(97,7,10) occ(111,7,1) occ(117,7,4) occ(125,7,12) occ(32,8,11) occ(52,8,9) occ(66,8,8) occ(98,8,2) occ(104,8,5) occ(113,8,3) occ(116,8,7) occ(119,8,6) occ(123,8,10) occ(50,9,11) occ(53,9,4) occ(57,9,6) occ(71,9,5) occ(75,9,7) occ(86,9,1) occ(99,9,9) occ(102,9,3) occ(109,9,2) occ(112,9,10) occ(121,9,8) occ(34,10,12) occ(38,10,10) occ(44,10,11) occ(65,10,3) occ(68,10,7) occ(72,10,9) occ(82,10,4) occ(100,10,1) occ(105,10,5) occ(106,10,6) occ(114,10,8) occ(40,11,12) occ(48,11,10) occ(59,11,5) occ(63,11,1) occ(69,11,4) occ(73,11,6) occ(74,11,11) occ(78,11,7) occ(84,11,2) occ(101,11,8) occ(107,11,3) occ(110,11,9) occ(36,12,11) occ(42,12,10) occ(46,12,12) occ(61,12,3) occ(67,12,2) occ(70,12,8) occ(76,12,9) occ(80,12,5) occ(103,12,6) occ(108,12,7)
Optimization: -132
*** Info : (clingo): INTERRUPTED by signal!
SATISFIABLE

TIME LIMIT   : 1
Models       : 15+
  Optimum    : unknown
Optimization : -132
Calls        : 1
Time         : 300.000s (Solving: 295.02s 1st Model: 0.01s Unsat: 0.00s)
CPU Time     : 300.000s
